ITEM = 1..30;
capacity1 = 287;
capacity2 = 287;
capacity3 = 287;
profits = [28, 53, 35, 20, 23, 21, 26, 20, 37, 51, 96, 46, 29, 26, 37, 35, 68, 20, 25, 51, 60, 50, 45, 31, 49, 51, 53, 22, 21, 59];
weights = [96, 80, 26, 59, 13, 18, 58, 21, 80, 74, 88, 82, 65, 64, 31, 32, 67, 11, 20, 81, 51, 92, 75, 32, 86, 56, 98, 13, 73, 81];
